NAME : prob15d.5566.tour
COMMENT : Cost = 0_5566
COMMENT : Found by LKH [Keld Helsgaun] Sun Sep 17 01:05:33 2017
TYPE : TOUR
DIMENSION : 31
TOUR_SECTION
1
19
17
21
23
25
31
26
28
29
10
22
27
11
16
30
13
15
4
18
20
8
14
24
2
7
9
5
6
12
3
-1
EOF
